Route #1: 5 12 58
Route #2: 59 60 82
Route #3: 83 51 81
Route #4: 1 70 54
Route #5: 3 77 63
Route #6: 32 33 53 73 95 24
Route #7: 44 67 88 40
Route #8: 31 46 35
Route #9: 28 42 78 65 25
Route #10: 52 91 50
Route #11: 17 8
Route #12: 57 72 36 29 43 45 2 7
Route #13: 92 9 86
Route #14: 75 93
Route #15: 69 16 55 76
Route #16: 38 47 26 48 96 64 34
Route #17: 89 98 99 62 71
Route #18: 20 41 22 15
Route #19: 68 90 84 66
Route #20: 23 61 100
Route #21: 14 49 6 37 87
Route #22: 4 13 74
Route #23: 27 97 19
Route #24: 39 10 18
Route #25: 30 85 11 79
Route #26: 21 56 94 80
Cost 27591.0000
Time 16.0006